WARNING: for repeatability, setting FPU to use double precision
============================[ Problem Statistics ]=============================
|                                                                             |
|  Number of variables:        141429                                         |
|  Number of clauses:          646015                                         |
|  Parse time:                   0.14 s                                       |
|                                                                             |
c ============================[ Search Statistics ]==============================
c | Conflicts |          ORIGINAL         |          LEARNT          | Progress |
c |           |    Vars  Clauses Literals |    Limit  Clauses Lit/Cl |          |
c ===============================================================================
c Switched to VSIDS.
c Switched to LRB.
c Switched to VSIDS.
c Switched to LRB.
c Switched to VSIDS.
c Switched to LRB.
c Switched to VSIDS.
c Switched to LRB.
c Switched to VSIDS.
c Switched to LRB.
c Switched to VSIDS.
c Switched to LRB.
c Switched to VSIDS.
c Switched to LRB.
c Switched to VSIDS.
c Switched to LRB.
c Switched to VSIDS.
c Switched to LRB.
c Switched to VSIDS.
c Switched to LRB.
c Switched to VSIDS.
c Switched to LRB.
c Switched to VSIDS.
c Switched to LRB.
c Switched to VSIDS.
c Switched to LRB.
c Switched to VSIDS.
c Switched to LRB.
c ===============================================================================
restarts                  : 22612
conflicts                 : 3264867        (914 /sec)
decisions                 : 41428670       (0.00 % random) (11603 /sec)
propagations              : 6359204431     (1781101 /sec)
conflict literals         : 311275301      (20.90 % deleted)

conflicts w/ DIP found    : 2651050        (81.20 % of conflicts)
conflicts w/ dangerous DIP: 0              (0.00 % of conflicts)
conflicts w/ DIP-learning : 644            (0.02 % of conflicts)
decisions on ext vars     : 832            (0.00 % of decisions)
total ext vars            : 198         
tried delete ext vars     : 1           
deleted ext vars          : 1           
max ext vars              : 197         

Memory used               : 409.00 MB
CPU time                  : 3570.38 s
DIP computation time      : 331.171 s (9.28 % of total time)
ER_sel time               : 4.86203 s
ER_add time               : 0.003937 s
ER_delC time              : 0 s
ER_delV time              : 0.000951 s
ER_sub time               : 6.13148 s
ER_stat time              : 0 s

INDETERMINATE
